
  12    4
  10   10   10   10

   0   0   0   0   0   1 2 
   7  10  10  10  10   1 3 
   9  10  10  10  10   1 4 
   6  10  10  10  10   1 5 
   8  10  10  10  10   1 6 
   4  10  10  10  10   1 7 
   5  10  10  10  10   1 8 
   2  10  10  10  10   1 9 
   5  10  10  10  10   1 10 
   7  10  10  10  10   1 11 
   8  10  10  10  10   1 12
   0   0   0   0   0   0 
